c User generated cnf file
p cnf 10 18
7 9 -1 0 
10 1 -9 0 
-4 9 7 0 
-1 5 10 0 
-10 1 2 0 
9 4 -6 0 
-2 4 9 0 
6 -5 7 0 
10 -1 7 0 
-2 3 9 0 
7 7 -4 0 
10 8 -9 0 
-2 6 9 0 
2 6 -4 0 
4 -9 3 0 
8 2 -3 0 
-5 5 3 0 
8 -9 10 0 
